
List of user-set options:

                                    Name   Value                used
                         derivative_test = first-order           yes
                        file_print_level = 5                     yes
                   hessian_approximation = limited-memory        yes
                                  hsllib = /home/ggs24/packages/ThirdParty-HSL/.libs/libcoinhsl.so  yes
                           linear_solver = ma97                  yes
                                max_iter = 1000                  yes
                             output_file = IPOPT.out             yes
                             print_level = 0                     yes
                      print_user_options = yes                   yes
                                      sb = yes                   yes
This is Ipopt version 3.14.7, running with linear solver ma97.

Starting derivative checker for first derivatives.

* grad_f[          3] =  9.1097440702014865e-04    ~  9.1084369239881921e-04  [ 1.435e-04]

Derivative checker detected 1 error(s).

Number of nonzeros in equality constraint Jacobian...:        0
Number of nonzeros in inequality constraint Jacobian.:        6
Number of nonzeros in Lagrangian Hessian.............:        0

Total number of variables............................:        6
                     variables with only lower bounds:        0
                variables with lower and upper bounds:        6
                     variables with only upper bounds:        0
Total number of equality constraints.................:        0
Total number of inequality constraints...............:        1
        inequality constraints with only lower bounds:        0
   inequality constraints with lower and upper bounds:        0
        inequality constraints with only upper bounds:        0

iter    objective    inf_pr   inf_du lg(mu)  ||d||  lg(rg) alpha_du alpha_pr  ls
   0  1.4831494e+01 0.00e+00 4.66e+00   0.0 0.00e+00    -  0.00e+00 0.00e+00   0
   1  3.4578659e+00 0.00e+00 3.30e+00  -0.1 2.40e+00    -  4.06e-01 1.00e+00f  1
   2  8.4139677e-01 0.00e+00 2.25e+00  -1.7 5.80e+00    -  4.59e-01 2.59e-01f  1
   3  8.1406596e-01 0.00e+00 2.14e-01  -1.1 1.04e-01    -  1.00e+00 1.00e+00f  1
   4  7.8513691e-01 0.00e+00 2.36e-01  -2.6 1.19e-01    -  1.00e+00 1.00e+00f  1
   5  2.1508555e-01 0.00e+00 1.98e-01  -0.6 1.75e+02    -  2.11e-02 1.16e-02f  2
   6  1.7540948e-01 0.00e+00 5.10e-01  -0.9 8.12e+01    -  4.25e-01 3.15e-03f  4
   7  1.4955138e-01 0.00e+00 6.71e-01  -1.0 6.96e+00    -  5.73e-01 2.73e-01f  2
   8  8.7978601e-02 0.00e+00 3.67e-01  -1.1 8.46e-01    -  6.89e-01 1.00e+00f  1
   9  2.1560872e-02 0.00e+00 2.41e-01  -1.8 5.48e-01    -  9.82e-01 1.00e+00f  1
iter    objective    inf_pr   inf_du lg(mu)  ||d||  lg(rg) alpha_du alpha_pr  ls
  10  9.3922113e-03 0.00e+00 4.91e-02  -2.6 3.26e-01    -  9.96e-01 1.00e+00f  1
  11  1.8661194e-03 0.00e+00 1.19e-01  -3.3 3.70e-01    -  9.99e-01 2.50e-01f  3
  12  1.4531086e-03 0.00e+00 1.46e-01  -4.4 1.23e-01    -  1.00e+00 5.00e-01f  2
  13  0.0000000e+00 0.00e+00 5.02e-06  -5.7 2.51e-01    -  1.00e+00 1.00e+00f  1
  14  0.0000000e+00 0.00e+00 4.15e-11 -11.0 6.32e-11    -  1.00e+00 1.00e+00f  1

Number of Iterations....: 14

                                   (scaled)                 (unscaled)
Objective...............:   0.0000000000000000e+00    0.0000000000000000e+00
Dual infeasibility......:   4.1461187525045939e-11    4.1461187525045939e-11
Constraint violation....:   0.0000000000000000e+00    0.0000000000000000e+00
Variable bound violation:   0.0000000000000000e+00    0.0000000000000000e+00
Complementarity.........:   3.1738206602468311e-11    3.1738206602468311e-11
Overall NLP error.......:   4.1461187525045939e-11    4.1461187525045939e-11


Number of objective function evaluations             = 43
Number of objective gradient evaluations             = 15
Number of equality constraint evaluations            = 0
Number of inequality constraint evaluations          = 43
Number of equality constraint Jacobian evaluations   = 0
Number of inequality constraint Jacobian evaluations = 15
Number of Lagrangian Hessian evaluations             = 0
Total seconds in IPOPT                               = 0.050

EXIT: Optimal Solution Found.
